100
32
1
18
29
32
4
16
27
2
27
6
25
9
26
8
8
1
20
2
1
1
1
3
2
2
1
3
3
2
3
1
20
1
3
2
1
20
1
2
3
1
1
3
1
1
2
4
2
17
3
1
2
1
19
17
3
2
3
3
3
1
2
1
21
2
5
5
18
4
3
1
3
1
2
3
1
1
20
2
6
1
1
2
2
2
3
1
1
2
4
18
3
2
4
3
20
2
2
2
1
1